x04m01e2t1tp2
3049
3049
3109
3109
3109
3126
3385
3385
3385
3385
3385
3385
3385
3420
3420
3420
3420
3420
3420
3603
3603
3603
3603
3603
3603
3603
3603
3603
3603
3603
3603
3603
3603
3603
3603
3603
3603
3603
3603
3603
3603
3603
3603
3631
3631
3631
3631
3631
3631
3631
3631
3631
3631
3631
3631
3631
3631
3631
3631
3631
3631
3631
3631
3631
3631
3631
3631
3631
3631
3631
3631
3631
3631
3631
3631
3631
3631
3631
3631
3631
3631
3631
3631
3631
3631
3631
3631
3631
3631
3631
3631
3631
3631
3631
3631
3631
3631
3631
3631
3631
3679
3679
3679
3679
3679
3679
3679
3679
3679
3679
3679
3679
3679
3679
3679
3679
3679
3679
3679
3679
3679
3679
3679
3679
3679
3679
3679
3679
3679
3679
3679
3679
3679
3679
3679
3679
3730
3730
3730
3730
3730
3730
3730
3730
3730
3730
3730
3730
3730
3730
3730
3730
3730
3730
3730
3730
3730
3730
3730
3730
3730
3730
3730
3730
3730
3730
3730
3730
3730
3730
3730
3730
3730
3730
3730
3730
3730
3730
3730
3730
3730
3730
3858
3858
3858
3858
3858
3858
3858
3858
3858
3858
3858
3858
3858
3858
3858
3858
3858
3858
3858
3896
3896
3896
3896
3896
3896
3896
3896
3896
3896
3896
3896
3896
3896
3896
3896
3896
3896
3896
3896
3896
3896
3896
3896
3896
3896
3896
3896
3896
3896
3896
3896
3896
3896
3896
3896
3896
3896
3896
3896
3896
3896
3896
3896
3896
3896
3896
3896
3896
3896
3896
3896
3896
3896
3896
3896
3896
3896
3896
3896
3896
3896
3896
3896
3896
3896
3896
3896
3896
3896
3896
3896
3896
3896
3896
3896
3896
3896
3896
3912
3912
3912
3912
3912
3912
3912
3912
3912
3912
3912
3912
3912
3912
3912
3912
3912
3912
3912
3912
3912
3912
3912
3912
3912
3912
3912
3912
3912
3912
3912
3912
3912
3912
3912
3912
3912
3912
3912
3912
3912
3912
3912
3912
3912
3912
3912
3912
3912
3912
3912
3912
3912
3912
3912
3912
3912
3912
3912
3912
3912
3912
3912
3912
3912
3912
3912
3912
3912
3912
3912
3912
3912
3912
3912
3912
3912
3912
3912
3912
3912
3912
3950
3950
3950
3969
3969
3969
3969
3969
3969
3969
3969
3969
3969
3969
3969
3969
3969
3969
3969
3969
3969
3969
3969
3969
3969
4027
4027
4027
4027
4027
4027
4027
4027
4027
4027
4027
4027
4027
4027
4027
4027
4027
4027
4027
4027
4027
4027
4027
4027
4027
4027
4027
4027
4027
4027
4027
4027
4027
4027
4027
4027
4027
4027
4027
4027
4027
4027
4027
4027
4027
4027
4027
4027
4027
4027
4027
4027
4027
4027
4027
4027
4027
4027
4027
4027
4027
4027
4027
4027
4027
4027
4027
4027
4027
4027
4027
4027
4027
4027
4027
4027
4027
4027
4027
4027
4027
4027
4027
4027
4027
4027
4027
4027
4027
4027
4027
4027
4027
4027
4027
4027
4027
4027
4027
4027
4027
4027
4027
4027
4027
4027
4027
4027
4027
4027
4027
4027
4027
4027
4027
4027
4027
4027
4027
4027
4027
4027
4027
4027
4027
4027
4027
4027
4027
4027
4027
4027
4027
4027
4027
4027
4027
4027
4027
4027
4027
4027
4027
4027
4027
4027
4027
4027
4027
4027
4027
4027
4027
4027
4027
4027
4027
4027
4027
4027
4027
4027
4027
4027
4027
4027
4027
4027
4027
4027
4027
4027
4027
4027
4027
4027
4027
4027
4027
4027
4027
4027
4027
4027
4027
4027
4027
4027
4027
4027
4027
4027
4027
4027
4027
4027
4027
4027
4027
4027
4027
4027
4027
4027
4027
4027
4027
4027
4027
4027
4027
4027
4027
4027
4027
4027
4027
4027
4027
4027
4027
4027
4027
4027
4027
4027
4027
4027
4027
4027
4027
4027
4027
4027
4027
4027
4027
4027
4027
4027
4027
4027
4027
4027
4027
4027
4027
4027
4027
4027
4027
4027
4027
4027
4027
4027
4027
4027
4027
4027
4027
4027
4027
4027
4027
4027
4027
4027
4027
4027
4027
4027
4027
4027
4027
4027
4027
4027
4027
4027
4027
4027
4027
4027
4027
4027
4027
4027
4027
4027
4027
4027
4027
4027
4027
4027
4027
4027
4027
4027
4027
4027
4027
4027
4027
4027
4027
4027
4027
4027
4027
4027
4027
4027
4027
4027
4027
4027
4027
4027
4027
4027
4027
4027
4027
4027
4027
4027
4027
4027
4027
4027
4027
4027
4027
4027
4027
4027
4027
4027
4027
4027
4027
4027
4027
4027
4027
4027
4027
4027
4027
4027
4027
4027
4027
4027
4027
4027
4027
4027
4027
4027
4027
4027
4027
4027
4027
4027
4027
4027
4027
4027
4027
4027
4027
4027
4027
4027
4027
4027
4027
4027
4027
4027
4027
4027
4027
4027
4027
4027
4027
4027
4027
4027
4027
4027
4027
4027
4027
4027
4027
4027
4027
4027
4027
4027
4027
4027
4027
4027
4027
4027
4027
4027
4027
4027
4027
4027
4027
4027
4027
4027
4027
4027
4027
4027
4027
4027
4027
4027
4027
4027
4027
4027
4027
4027
4027
4027
4027
4027
4027
4027
4027
4027
4027
4027
4027
4027
4027
4027
4027
4027
4027
4027
4027
4027
4027
4027
4027
4027
4027
4027
4027
4027
4027
4027
4027
4027
4027
4027
4027
4027
4027
4027
4027
4027
4027
4027
4027
4027
4027
4027
4027
4027
4027
4027
4027
4027
4027
4027
4027
4027
4027
4027
4027
4027
4027
4027
4027
4027
4027
4027
4027
4027
4027
4027
4027
4027
4027
4027
4027
4027
4027
4027
4027
4027
4027
4027
4027
4027
4027
4027
4027
4027
4027
4027
4027
4027
4027
4027
4027
4027
4027
4027
4027
4027
4027
4027
4027
4027
4027
4027
4027
4027
4027
4027
4027
4027
4027
4027
4027
4027
4027
4027
4027
4027
4027
4027
4027
4027
4027
4027
4027
4027
4027
4027
4027
4027
4027
4027
4027
4027
4027
4027
4027
4027
4027
4027
4027
4027
4027
4027
4027
4027
4027
4027
4027
4027
4027
4027
4027
4027
4027
4027
4027
4027
4027
4027
4027
4027
4027
4027
4027
4027
4027
4027
4027
4027
4027
4027
4027
4027
4027
